Route #1: 26
Route #2: 111 76
Route #3: 86 96
Route #4: 31 60
Route #5: 38 102
Route #6: 14 97 74 42 81 52 44 123
Route #7: 16 43 106 61
Route #8: 83 21
Route #9: 18 10
Route #10: 57 120
Route #11: 35 8
Route #12: 113 33 5
Route #13: 32 75
Route #14: 37 53
Route #15: 69 98
Route #16: 29 104 119 45
Route #17: 71 41 107
Route #18: 58 4 80 65 40 22 47 68 25
Route #19: 109 36 55 27 30 85 62
Route #20: 108 117 1 46 79 63 118 94
Route #21: 84 121 54 64 7 77 101 20 95
Route #22: 48 39 72 67
Route #23: 103 12
Route #24: 100 99
Route #25: 91 112
Route #26: 122 73
Route #27: 110 92 15 17 116
Route #28: 66 50 124 59 9 78
Route #29: 87 114 11 19 70 6 34 2
Route #30: 115 88 89 105 51
Route #31: 13 28 49 82
Route #32: 56 23 24
Route #33: 3 90 93
Cost 60921
